p cnf 7230 17
-3508 -4080 -4716 5184 0
-3506 -4082 -4718 5182 0
3508 -5185 0
3506 -5183 0
-4088 -4734 -5186 0
4088 -5187 0
4080 -5185 0
4082 -5183 0
5186 5187 0
-5184 5185 0
-5182 5183 0
4734 -5187 0
4716 -5185 0
4718 -5183 0
-4724 -4764 5189 0
4764 -5189 0
4724 -5189 0
